
List of user-set options:

                                    Name   Value                used
                        file_print_level = 5                     yes
                   hessian_approximation = limited-memory        yes
                                  hsllib = /home/ggs24/packages/ThirdParty-HSL/.libs/libcoinhsl.so  yes
                           linear_solver = ma97                  yes
                                max_iter = 500                   yes
                             output_file = IPOPT.out             yes
                             print_level = 0                     yes
                      print_user_options = yes                   yes
                                      sb = yes                   yes
This is Ipopt version 3.14.7, running with linear solver ma97.

Number of nonzeros in equality constraint Jacobian...:       60
Number of nonzeros in inequality constraint Jacobian.:     3660
Number of nonzeros in Lagrangian Hessian.............:        0

Total number of variables............................:       15
                     variables with only lower bounds:        1
                variables with lower and upper bounds:        0
                     variables with only upper bounds:        0
Total number of equality constraints.................:        4
Total number of inequality constraints...............:      244
        inequality constraints with only lower bounds:        0
   inequality constraints with lower and upper bounds:      183
        inequality constraints with only upper bounds:       61

iter    objective    inf_pr   inf_du lg(mu)  ||d||  lg(rg) alpha_du alpha_pr  ls
   0  3.2757547e+01 1.00e+00 8.44e-09   0.0 0.00e+00    -  0.00e+00 0.00e+00   0
   1  3.2889419e+01 8.65e-01 2.65e+01  -0.6 2.15e+00    -  9.69e-01 1.35e-01f  1
   2  2.3150861e+01 6.28e-01 5.02e+01   0.3 3.56e+01    -  9.46e-01 2.74e-01f  1
   3  2.3488957e+01 6.46e-02 1.69e+02   0.1 1.07e+00    -  6.06e-01 1.00e+00f  1
   4  2.4129910e+01 8.88e-16 1.29e+00  -0.6 6.41e-01    -  9.96e-01 1.00e+00h  1
   5  2.3595559e+01 0.00e+00 3.04e-01  -1.8 5.34e-01    -  1.00e+00 1.00e+00f  1
   6  2.2864660e+01 7.53e-03 6.75e-02  -2.3 7.31e-01    -  9.88e-01 1.00e+00h  1
   7  2.2845174e+01 1.83e-02 2.50e-02  -2.3 1.37e-01    -  1.00e+00 8.34e-01h  1
   8  2.2780854e+01 0.00e+00 1.73e-02  -3.0 6.43e-02    -  9.70e-01 1.00e+00h  1
   9  2.2708527e+01 1.93e-04 4.66e-02  -4.0 1.31e-01    -  1.00e+00 8.06e-01f  1
iter    objective    inf_pr   inf_du lg(mu)  ||d||  lg(rg) alpha_du alpha_pr  ls
  10  2.2690207e+01 2.61e-04 1.07e-01  -4.5 6.92e-02    -  1.00e+00 8.49e-01h  1
  11  2.2689193e+01 4.84e-05 6.40e-01  -4.5 3.01e-02    -  1.00e+00 7.41e-01h  1
  12  2.2689527e+01 4.56e-07 9.55e-03  -4.5 7.08e-03    -  1.00e+00 9.93e-01h  1
  13  2.2689241e+01 7.55e-08 1.94e+00  -5.2 2.02e-03    -  9.99e-01 5.89e-01h  1
  14  2.2689100e+01 6.73e-08 1.25e-04  -5.4 3.62e-03    -  1.00e+00 1.00e+00h  1
  15  2.2689070e+01 8.88e-16 1.08e-02  -5.9 3.17e-03    -  9.89e-01 1.00e+00h  1
  16  2.2689055e+01 8.88e-16 7.34e-05  -6.0 4.40e-03    -  1.00e+00 1.00e+00h  1
  17  2.2689050e+01 1.15e-08 7.31e-02  -7.3 6.26e-04    -  9.98e-01 5.91e-01h  1
  18  2.2689047e+01 8.88e-16 3.98e-06  -8.6 1.85e-04    -  1.00e+00 9.30e-01h  1
  19  2.2689047e+01 9.93e-12 1.61e-07 -11.0 1.28e-05    -  1.00e+00 9.97e-01h  1
iter    objective    inf_pr   inf_du lg(mu)  ||d||  lg(rg) alpha_du alpha_pr  ls
  20  2.2689047e+01 8.88e-16 2.11e-09 -11.0 8.82e-08    -  1.00e+00 1.00e+00h  1

Number of Iterations....: 20

                                   (scaled)                 (unscaled)
Objective...............:   2.2689047102557875e+01    2.2689047102557875e+01
Dual infeasibility......:   2.1135352634704674e-09    2.1135352634704674e-09
Constraint violation....:   8.8817841970012523e-16    8.8817841970012523e-16
Variable bound violation:   0.0000000000000000e+00    0.0000000000000000e+00
Complementarity.........:   1.0007123669592913e-11    1.0007123669592913e-11
Overall NLP error.......:   2.1135352634704674e-09    2.1135352634704674e-09


Number of objective function evaluations             = 21
Number of objective gradient evaluations             = 21
Number of equality constraint evaluations            = 21
Number of inequality constraint evaluations          = 21
Number of equality constraint Jacobian evaluations   = 21
Number of inequality constraint Jacobian evaluations = 21
Number of Lagrangian Hessian evaluations             = 0
Total seconds in IPOPT                               = 0.679

EXIT: Optimal Solution Found.
